--------------------------------------------------------------------------------(Solver execution current time: 0.0004515647888183594)
[INFO] Input Seed : 3183687
--------------------------------------------------------------------------------(Solver execution current time: 0.0005002021789550781)
[INFO] Input time limit : 30
--------------------------------------------------------------------------------(Solver execution current time: 0.0005364418029785156)
[INFO] Command line arguments read with no errors.
--------------------------------------------------------------------------------(Solver execution current time: 0.08639192581176758)
[INFO] Input file read with no errors.
--------------------------------------------------------------------------------(Solver execution current time: 0.0866236686706543)
[INFO] Starting solver.
--------------------------------------------------------------------------------(Solver execution current time: 0.0867319107055664)
[INFO] Starting construction
--------------------------------------------------------------------------------(Solver execution current time: 11.159531354904175)
[INFO] Finished construction
--------------------------------------------------------------------------------(Solver execution current time: 11.159641981124878)
[SOLUTION]
Basic Greedy Heuristic
Exec Time: 11.072807550430298
obj_value: -68; obj_routes: 26713.0
Route 1 : 1 62 137 41 13 6 116 81 14 59 27 22 31 51 102 106 88 97 76 89 19 126 134 94 69 65 144 140 5 80 20 95 64 139 
Route 2 : 10 40 48 18 42 115 85 117 68 60 143 135 54 49 93 129 123 124 23 47 25 98 100 43 118 122 
Route 3 : 2 77 33 32 107 73 56 52 127 53 108 148 11 131 86 128 37 50 63 112 36 111 138 7 66 141 125 67 82 57 142 132 
Route 4 : 39 114 70 145 29 24 34 46 26 101 99 45 109 120 121 104 38 61 136 113 21 96 
Route 5 : 4 79 58 133 16 30 91 105 71 146 72 147 
Route 6 : 12 3 9 84 87 78 8 83 44 119 
Route 7 : 
Route 8 : 
Route 9 : 
Route 10 : 
Route 11 : 
Route 12 : 
Route 13 : 
Route 14 : 
Route 15 : 
Route 16 : 
Route 17 : 
Route 18 : 
Route 19 : 
Route 20 : 
Route 21 : 

--------------------------------------------------------------------------------(Solver execution current time: 11.160789489746094)
[SOLUTION]
Solution after BasicGreedyLimitedHeterogeneousFleet
obj_value: -68; obj_routes: 26713.0
Route 1 : 1 62 137 41 13 6 116 81 14 59 27 22 31 51 102 106 88 97 76 89 19 126 134 94 69 65 144 140 5 80 20 95 64 139 
Route 2 : 10 40 48 18 42 115 85 117 68 60 143 135 54 49 93 129 123 124 23 47 25 98 100 43 118 122 
Route 3 : 2 77 33 32 107 73 56 52 127 53 108 148 11 131 86 128 37 50 63 112 36 111 138 7 66 141 125 67 82 57 142 132 
Route 4 : 39 114 70 145 29 24 34 46 26 101 99 45 109 120 121 104 38 61 136 113 21 96 
Route 5 : 4 79 58 133 16 30 91 105 71 146 72 147 
Route 6 : 12 3 9 84 87 78 8 83 44 119 
Route 7 : 
Route 8 : 
Route 9 : 
Route 10 : 
Route 11 : 
Route 12 : 
Route 13 : 
Route 14 : 
Route 15 : 
Route 16 : 
Route 17 : 
Route 18 : 
Route 19 : 
Route 20 : 
Route 21 : 

--------------------------------------------------------------------------------(Solver execution current time: 11.161055088043213)
[INFO] Starting metaheuristic
--------------------------------------------------------------------------------(Solver execution current time: 11.163742303848267)
[INFO] AGES EXCLUDED
--------------------------------------------------------------------------------(Solver execution current time: 11.165314197540283)
[INFO] Starting LNS
--------------------------------------------------------------------------------(Solver execution current time: 12.425255060195923)
[SOLUTION]
LNS
IT: 40
Exec Time: 1.2579700946807861
obj_value: -68; obj_routes: 26713.0
Route 1 : 1 62 137 41 13 6 116 81 14 59 27 22 31 51 102 106 88 97 76 89 19 126 134 94 69 65 144 140 5 80 20 95 64 139 
Route 2 : 10 40 48 18 42 115 85 117 68 60 143 135 54 49 93 129 123 124 23 47 25 98 100 43 118 122 
Route 3 : 2 77 33 32 107 73 56 52 127 53 108 148 11 131 86 128 37 50 63 112 36 111 138 7 66 141 125 67 82 57 142 132 
Route 4 : 39 114 70 145 29 24 34 46 26 101 99 45 109 120 121 104 38 61 136 113 21 96 
Route 5 : 4 79 58 133 16 30 91 105 71 146 72 147 
Route 6 : 12 3 9 84 87 78 8 83 44 119 
Route 7 : 
Route 8 : 
Route 9 : 
Route 10 : 
Route 11 : 
Route 12 : 
Route 13 : 
Route 14 : 
Route 15 : 
Route 16 : 
Route 17 : 
Route 18 : 
Route 19 : 
Route 20 : 
Route 21 : 

--------------------------------------------------------------------------------(Solver execution current time: 12.427295446395874)
[INFO] Starting PartitionMaxRequestsHF
--------------------------------------------------------------------------------(Solver execution current time: 12.484999895095825)
[SOLUTION]
PartitionMaxRequestsHF
Exec Time: 0.057639122009277344
obj_value: -68; obj_routes: 26713.0
Route 1 : 1 62 137 41 13 6 116 81 14 59 27 22 31 51 102 106 88 97 76 89 19 126 134 94 69 65 144 140 5 80 20 95 64 139 
Route 2 : 10 40 48 18 42 115 85 117 68 60 143 135 54 49 93 129 123 124 23 47 25 98 100 43 118 122 
Route 3 : 2 77 33 32 107 73 56 52 127 53 108 148 11 131 86 128 37 50 63 112 36 111 138 7 66 141 125 67 82 57 142 132 
Route 4 : 39 114 70 145 29 24 34 46 26 101 99 45 109 120 121 104 38 61 136 113 21 96 
Route 5 : 4 79 58 133 16 30 91 105 71 146 72 147 
Route 6 : 12 3 9 84 87 78 8 83 44 119 
Route 7 : 
Route 8 : 
Route 9 : 
Route 10 : 
Route 11 : 
Route 12 : 
Route 13 : 
Route 14 : 
Route 15 : 
Route 16 : 
Route 17 : 
Route 18 : 
Route 19 : 
Route 20 : 
Route 21 : 

--------------------------------------------------------------------------------(Solver execution current time: 12.486972093582153)
[INFO] Starting OriginalPerturbation
--------------------------------------------------------------------------------(Solver execution current time: 17.927958011627197)
[SOLUTION]
Original Perturbation
Exec Time: 5.442526817321777
obj_value: -68; obj_routes: 28782.0
Route 1 : 1 62 137 41 13 6 116 81 14 59 27 22 31 51 102 106 88 97 76 89 19 126 134 94 69 65 144 140 5 80 64 139 
Route 2 : 10 40 48 18 42 115 85 117 68 60 143 135 54 49 93 129 123 124 23 25 98 100 43 118 
Route 3 : 2 77 33 32 107 73 56 52 127 53 108 148 11 131 86 128 50 63 36 111 138 66 141 125 67 142 
Route 4 : 39 114 70 145 26 101 8 61 136 7 83 82 
Route 5 : 4 79 29 104 20 46 95 30 24 121 47 99 105 122 72 147 
Route 6 : 12 3 9 84 87 78 34 16 91 44 119 109 
Route 7 : 38 113 37 112 71 146 
Route 8 : 57 132 
Route 9 : 21 45 96 120 
Route 10 : 58 133 
Route 11 : 
Route 12 : 
Route 13 : 
Route 14 : 
Route 15 : 
Route 16 : 
Route 17 : 
Route 18 : 
Route 19 : 
Route 20 : 
Route 21 : 

--------------------------------------------------------------------------------(Solver execution current time: 17.930025100708008)
[SOLUTION]
SBMath
IT: 1
ITs witout improving: 1
IT time: 6.766281604766846
Time since begin: 6.767130613327026
obj_value: -68; obj_routes: 28782.0
Route 1 : 1 62 137 41 13 6 116 81 14 59 27 22 31 51 102 106 88 97 76 89 19 126 134 94 69 65 144 140 5 80 64 139 
Route 2 : 10 40 48 18 42 115 85 117 68 60 143 135 54 49 93 129 123 124 23 25 98 100 43 118 
Route 3 : 2 77 33 32 107 73 56 52 127 53 108 148 11 131 86 128 50 63 36 111 138 66 141 125 67 142 
Route 4 : 39 114 70 145 26 101 8 61 136 7 83 82 
Route 5 : 4 79 29 104 20 46 95 30 24 121 47 99 105 122 72 147 
Route 6 : 12 3 9 84 87 78 34 16 91 44 119 109 
Route 7 : 38 113 37 112 71 146 
Route 8 : 57 132 
Route 9 : 21 45 96 120 
Route 10 : 58 133 
Route 11 : 
Route 12 : 
Route 13 : 
Route 14 : 
Route 15 : 
Route 16 : 
Route 17 : 
Route 18 : 
Route 19 : 
Route 20 : 
Route 21 : 

--------------------------------------------------------------------------------(Solver execution current time: 17.930460929870605)
[SOLUTION]
SBMath
IT: 1
ITs witout improving: 1
IT time: 6.766281604766846
Time since begin: 6.767130613327026
obj_value: -68; obj_routes: 26703.0
Route 1 : 1 62 137 41 13 6 116 81 14 59 27 22 31 51 102 106 88 97 76 89 19 126 134 94 69 65 144 140 5 80 64 139 
Route 2 : 10 40 48 18 42 115 85 117 68 60 143 135 54 49 93 129 123 124 23 47 25 98 100 43 118 122 
Route 3 : 2 77 33 32 107 73 56 52 127 53 108 148 11 131 86 128 37 50 63 112 36 111 138 7 66 141 125 67 82 57 142 132 
Route 4 : 39 114 70 145 29 24 34 26 101 99 45 109 120 104 38 61 136 113 21 96 
Route 5 : 4 79 58 20 133 46 95 30 121 105 71 146 72 147 
Route 6 : 12 3 9 84 87 78 16 91 8 83 44 119 
Route 7 : 
Route 8 : 
Route 9 : 
Route 10 : 
Route 11 : 
Route 12 : 
Route 13 : 
Route 14 : 
Route 15 : 
Route 16 : 
Route 17 : 
Route 18 : 
Route 19 : 
Route 20 : 
Route 21 : 

--------------------------------------------------------------------------------(Solver execution current time: 17.930798768997192)
[INFO] AGES EXCLUDED
--------------------------------------------------------------------------------(Solver execution current time: 17.93309998512268)
[INFO] Starting LNS
--------------------------------------------------------------------------------(Solver execution current time: 19.044782638549805)
[SOLUTION]
LNS
IT: 40
Exec Time: 1.1093902587890625
obj_value: -68; obj_routes: 28782.0
Route 1 : 1 62 137 41 13 6 116 81 14 59 27 22 31 51 102 106 88 97 76 89 19 126 134 94 69 65 144 140 5 80 64 139 
Route 2 : 10 40 48 18 42 115 85 117 68 60 143 135 54 49 93 129 123 124 23 25 98 100 43 118 
Route 3 : 2 77 33 32 107 73 56 52 127 53 108 148 11 131 86 128 50 63 36 111 138 66 141 125 67 142 
Route 4 : 39 114 70 145 26 101 8 61 136 7 83 82 
Route 5 : 4 79 29 104 20 46 95 30 24 121 47 99 105 122 72 147 
Route 6 : 12 3 9 84 87 78 34 16 91 44 119 109 
Route 7 : 38 113 37 112 71 146 
Route 8 : 57 132 
Route 9 : 21 45 96 120 
Route 10 : 58 133 
Route 11 : 
Route 12 : 
Route 13 : 
Route 14 : 
Route 15 : 
Route 16 : 
Route 17 : 
Route 18 : 
Route 19 : 
Route 20 : 
Route 21 : 

--------------------------------------------------------------------------------(Solver execution current time: 19.047909259796143)
[INFO] Starting PartitionMaxRequestsHF
--------------------------------------------------------------------------------(Solver execution current time: 19.07640290260315)
[SOLUTION]
PartitionMaxRequestsHF
Exec Time: 0.028415203094482422
Improvedobj_value: -68; obj_routes: 26713.0
Route 1 : 1 62 137 41 13 6 116 81 14 59 27 22 31 51 102 106 88 97 76 89 19 126 134 94 69 65 144 140 5 80 20 95 64 139 
Route 2 : 10 40 48 18 42 115 85 117 68 60 143 135 54 49 93 129 123 124 23 47 25 98 100 43 118 122 
Route 3 : 2 77 33 32 107 73 56 52 127 53 108 148 11 131 86 128 37 50 63 112 36 111 138 7 66 141 125 67 82 57 142 132 
Route 4 : 39 114 70 145 29 24 34 46 26 101 99 45 109 120 121 104 38 61 136 113 21 96 
Route 5 : 4 79 58 133 16 30 91 105 71 146 72 147 
Route 6 : 12 3 9 84 87 78 8 83 44 119 
Route 7 : 
Route 8 : 
Route 9 : 
Route 10 : 
Route 11 : 
Route 12 : 
Route 13 : 
Route 14 : 
Route 15 : 
Route 16 : 
Route 17 : 
Route 18 : 
Route 19 : 
Route 20 : 
Route 21 : 

--------------------------------------------------------------------------------(Solver execution current time: 19.078494548797607)
[INFO] Starting OriginalPerturbation
--------------------------------------------------------------------------------(Solver execution current time: 22.262077569961548)
[SOLUTION]
Original Perturbation
Exec Time: 3.1852223873138428
obj_value: -68; obj_routes: 30756.0
Route 1 : 1 62 137 41 13 6 116 81 14 59 27 22 31 51 102 106 88 97 76 89 19 126 134 94 69 65 20 144 140 64 95 139 
Route 2 : 10 40 48 18 42 115 85 117 68 60 143 135 54 49 93 129 123 124 23 98 43 118 
Route 3 : 2 77 33 32 107 73 56 52 127 53 108 148 11 131 86 128 50 63 36 111 138 66 141 125 67 142 
Route 4 : 39 114 70 145 16 91 25 61 136 7 100 82 
Route 5 : 4 79 29 104 57 46 24 121 99 132 
Route 6 : 12 3 9 84 87 78 38 113 
Route 7 : 58 21 133 8 71 146 83 96 
Route 8 : 37 5 80 112 
Route 9 : 34 45 109 120 
Route 10 : 26 101 
Route 11 : 47 122 30 105 
Route 12 : 72 44 119 147 
Route 13 : 
Route 14 : 
Route 15 : 
Route 16 : 
Route 17 : 
Route 18 : 
Route 19 : 
Route 20 : 
Route 21 : 

--------------------------------------------------------------------------------(Solver execution current time: 22.263628482818604)
[SOLUTION]
SBMath
IT: 2
ITs witout improving: 2
IT time: 4.332843065261841
Time since begin: 11.100734949111938
obj_value: -68; obj_routes: 30756.0
Route 1 : 1 62 137 41 13 6 116 81 14 59 27 22 31 51 102 106 88 97 76 89 19 126 134 94 69 65 20 144 140 64 95 139 
Route 2 : 10 40 48 18 42 115 85 117 68 60 143 135 54 49 93 129 123 124 23 98 43 118 
Route 3 : 2 77 33 32 107 73 56 52 127 53 108 148 11 131 86 128 50 63 36 111 138 66 141 125 67 142 
Route 4 : 39 114 70 145 16 91 25 61 136 7 100 82 
Route 5 : 4 79 29 104 57 46 24 121 99 132 
Route 6 : 12 3 9 84 87 78 38 113 
Route 7 : 58 21 133 8 71 146 83 96 
Route 8 : 37 5 80 112 
Route 9 : 34 45 109 120 
Route 10 : 26 101 
Route 11 : 47 122 30 105 
Route 12 : 72 44 119 147 
Route 13 : 
Route 14 : 
Route 15 : 
Route 16 : 
Route 17 : 
Route 18 : 
Route 19 : 
Route 20 : 
Route 21 : 

--------------------------------------------------------------------------------(Solver execution current time: 22.26387310028076)
[SOLUTION]
SBMath
IT: 2
ITs witout improving: 2
IT time: 4.332843065261841
Time since begin: 11.100734949111938
obj_value: -68; obj_routes: 26703.0
Route 1 : 1 62 137 41 13 6 116 81 14 59 27 22 31 51 102 106 88 97 76 89 19 126 134 94 69 65 144 140 5 80 64 139 
Route 2 : 10 40 48 18 42 115 85 117 68 60 143 135 54 49 93 129 123 124 23 47 25 98 100 43 118 122 
Route 3 : 2 77 33 32 107 73 56 52 127 53 108 148 11 131 86 128 37 50 63 112 36 111 138 7 66 141 125 67 82 57 142 132 
Route 4 : 39 114 70 145 29 24 34 26 101 99 45 109 120 104 38 61 136 113 21 96 
Route 5 : 4 79 58 20 133 46 95 30 121 105 71 146 72 147 
Route 6 : 12 3 9 84 87 78 16 91 8 83 44 119 
Route 7 : 
Route 8 : 
Route 9 : 
Route 10 : 
Route 11 : 
Route 12 : 
Route 13 : 
Route 14 : 
Route 15 : 
Route 16 : 
Route 17 : 
Route 18 : 
Route 19 : 
Route 20 : 
Route 21 : 

--------------------------------------------------------------------------------(Solver execution current time: 22.264119863510132)
[INFO] AGES EXCLUDED
--------------------------------------------------------------------------------(Solver execution current time: 22.265859365463257)
[INFO] Starting LNS
--------------------------------------------------------------------------------(Solver execution current time: 23.16671323776245)
[SOLUTION]
LNS
IT: 40
Exec Time: 0.8987264633178711
obj_value: -68; obj_routes: 30756.0
Route 1 : 1 62 137 41 13 6 116 81 14 59 27 22 31 51 102 106 88 97 76 89 19 126 134 94 69 65 20 144 140 64 95 139 
Route 2 : 10 40 48 18 42 115 85 117 68 60 143 135 54 49 93 129 123 124 23 98 43 118 
Route 3 : 2 77 33 32 107 73 56 52 127 53 108 148 11 131 86 128 50 63 36 111 138 66 141 125 67 142 
Route 4 : 39 114 70 145 16 91 25 61 136 7 100 82 
Route 5 : 4 79 29 104 57 46 24 121 99 132 
Route 6 : 12 3 9 84 87 78 38 113 
Route 7 : 58 21 133 8 71 146 83 96 
Route 8 : 37 5 80 112 
Route 9 : 34 45 109 120 
Route 10 : 26 101 
Route 11 : 47 122 30 105 
Route 12 : 72 44 119 147 
Route 13 : 
Route 14 : 
Route 15 : 
Route 16 : 
Route 17 : 
Route 18 : 
Route 19 : 
Route 20 : 
Route 21 : 

--------------------------------------------------------------------------------(Solver execution current time: 23.169689893722534)
[INFO] Starting PartitionMaxRequestsHF
--------------------------------------------------------------------------------(Solver execution current time: 23.20855402946472)
[SOLUTION]
PartitionMaxRequestsHF
Exec Time: 0.038796424865722656
obj_value: -68; obj_routes: 30756.0
Route 1 : 2 77 33 32 107 73 56 52 127 53 108 148 11 131 86 128 50 63 36 111 138 66 141 125 67 142 
Route 2 : 1 62 137 41 13 6 116 81 14 59 27 22 31 51 102 106 88 97 76 89 19 126 134 94 69 65 20 144 140 64 95 139 
Route 3 : 10 40 48 18 42 115 85 117 68 60 143 135 54 49 93 129 123 124 23 98 43 118 
Route 4 : 39 114 70 145 16 91 25 61 136 7 100 82 
Route 5 : 4 79 29 104 57 46 24 121 99 132 
Route 6 : 12 3 9 84 87 78 38 113 
Route 7 : 58 21 133 8 71 146 83 96 
Route 8 : 37 5 80 112 
Route 9 : 34 45 109 120 
Route 10 : 26 101 
Route 11 : 47 122 30 105 
Route 12 : 72 44 119 147 
Route 13 : 
Route 14 : 
Route 15 : 
Route 16 : 
Route 17 : 
Route 18 : 
Route 19 : 
Route 20 : 
Route 21 : 

--------------------------------------------------------------------------------(Solver execution current time: 23.21154546737671)
[INFO] Starting OriginalPerturbation
--------------------------------------------------------------------------------(Solver execution current time: 26.63210678100586)
[SOLUTION]
Original Perturbation
Exec Time: 3.42291522026062
obj_value: -68; obj_routes: 30735.0
Route 1 : 1 62 137 41 13 6 116 81 14 59 27 22 31 51 102 106 88 97 76 89 19 126 134 94 34 65 20 140 109 64 95 139 
Route 2 : 10 40 48 18 42 115 85 117 68 60 143 135 54 49 93 129 123 124 23 25 98 100 
Route 3 : 2 77 33 32 107 73 56 52 127 53 108 148 11 131 86 128 50 63 138 66 141 125 67 142 
Route 4 : 39 114 70 145 61 136 
Route 5 : 29 104 38 113 46 24 121 99 
Route 6 : 12 3 9 84 87 78 
Route 7 : 58 21 133 16 91 36 7 111 96 82 
Route 8 : 5 80 45 120 
Route 9 : 26 101 69 144 43 118 
Route 10 : 30 105 44 119 
Route 11 : 57 47 122 132 
Route 12 : 8 72 83 147 
Route 13 : 71 146 
Route 14 : 
Route 15 : 4 79 
Route 16 : 37 112 
Route 17 : 
Route 18 : 
Route 19 : 
Route 20 : 
Route 21 : 

--------------------------------------------------------------------------------(Solver execution current time: 26.63374376296997)
[SOLUTION]
SBMath
IT: 3
ITs witout improving: 3
IT time: 4.369631290435791
Time since begin: 15.470850706100464
obj_value: -68; obj_routes: 30735.0
Route 1 : 1 62 137 41 13 6 116 81 14 59 27 22 31 51 102 106 88 97 76 89 19 126 134 94 34 65 20 140 109 64 95 139 
Route 2 : 10 40 48 18 42 115 85 117 68 60 143 135 54 49 93 129 123 124 23 25 98 100 
Route 3 : 2 77 33 32 107 73 56 52 127 53 108 148 11 131 86 128 50 63 138 66 141 125 67 142 
Route 4 : 39 114 70 145 61 136 
Route 5 : 29 104 38 113 46 24 121 99 
Route 6 : 12 3 9 84 87 78 
Route 7 : 58 21 133 16 91 36 7 111 96 82 
Route 8 : 5 80 45 120 
Route 9 : 26 101 69 144 43 118 
Route 10 : 30 105 44 119 
Route 11 : 57 47 122 132 
Route 12 : 8 72 83 147 
Route 13 : 71 146 
Route 14 : 
Route 15 : 4 79 
Route 16 : 37 112 
Route 17 : 
Route 18 : 
Route 19 : 
Route 20 : 
Route 21 : 

--------------------------------------------------------------------------------(Solver execution current time: 26.63400673866272)
[SOLUTION]
SBMath
IT: 3
ITs witout improving: 3
IT time: 4.369631290435791
Time since begin: 15.470850706100464
obj_value: -68; obj_routes: 26703.0
Route 1 : 1 62 137 41 13 6 116 81 14 59 27 22 31 51 102 106 88 97 76 89 19 126 134 94 69 65 144 140 5 80 64 139 
Route 2 : 10 40 48 18 42 115 85 117 68 60 143 135 54 49 93 129 123 124 23 47 25 98 100 43 118 122 
Route 3 : 2 77 33 32 107 73 56 52 127 53 108 148 11 131 86 128 37 50 63 112 36 111 138 7 66 141 125 67 82 57 142 132 
Route 4 : 39 114 70 145 29 24 34 26 101 99 45 109 120 104 38 61 136 113 21 96 
Route 5 : 4 79 58 20 133 46 95 30 121 105 71 146 72 147 
Route 6 : 12 3 9 84 87 78 16 91 8 83 44 119 
Route 7 : 
Route 8 : 
Route 9 : 
Route 10 : 
Route 11 : 
Route 12 : 
Route 13 : 
Route 14 : 
Route 15 : 
Route 16 : 
Route 17 : 
Route 18 : 
Route 19 : 
Route 20 : 
Route 21 : 

--------------------------------------------------------------------------------(Solver execution current time: 26.63426446914673)
[INFO] AGES EXCLUDED
--------------------------------------------------------------------------------(Solver execution current time: 26.63597583770752)
[INFO] Starting LNS
--------------------------------------------------------------------------------(Solver execution current time: 27.80802845954895)
[SOLUTION]
LNS
IT: 40
Exec Time: 1.1699120998382568
obj_value: -68; obj_routes: 30735.0
Route 1 : 1 62 137 41 13 6 116 81 14 59 27 22 31 51 102 106 88 97 76 89 19 126 134 94 34 65 20 140 109 64 95 139 
Route 2 : 10 40 48 18 42 115 85 117 68 60 143 135 54 49 93 129 123 124 23 25 98 100 
Route 3 : 2 77 33 32 107 73 56 52 127 53 108 148 11 131 86 128 50 63 138 66 141 125 67 142 
Route 4 : 39 114 70 145 61 136 
Route 5 : 29 104 38 113 46 24 121 99 
Route 6 : 12 3 9 84 87 78 
Route 7 : 58 21 133 16 91 36 7 111 96 82 
Route 8 : 5 80 45 120 
Route 9 : 26 101 69 144 43 118 
Route 10 : 30 105 44 119 
Route 11 : 57 47 122 132 
Route 12 : 8 72 83 147 
Route 13 : 71 146 
Route 14 : 
Route 15 : 4 79 
Route 16 : 37 112 
Route 17 : 
Route 18 : 
Route 19 : 
Route 20 : 
Route 21 : 

--------------------------------------------------------------------------------(Solver execution current time: 27.81197690963745)
[INFO] Starting PartitionMaxRequestsHF
--------------------------------------------------------------------------------(Solver execution current time: 27.847996711730957)
[SOLUTION]
PartitionMaxRequestsHF
Exec Time: 0.035890817642211914
obj_value: -68; obj_routes: 30735.0
Route 1 : 1 62 137 41 13 6 116 81 14 59 27 22 31 51 102 106 88 97 76 89 19 126 134 94 34 65 20 140 109 64 95 139 
Route 2 : 10 40 48 18 42 115 85 117 68 60 143 135 54 49 93 129 123 124 23 25 98 100 
Route 3 : 2 77 33 32 107 73 56 52 127 53 108 148 11 131 86 128 50 63 138 66 141 125 67 142 
Route 4 : 39 114 70 145 61 136 
Route 5 : 29 104 38 113 46 24 121 99 
Route 6 : 12 3 9 84 87 78 
Route 7 : 58 21 133 16 91 36 7 111 96 82 
Route 8 : 5 80 45 120 
Route 9 : 26 101 69 144 43 118 
Route 10 : 30 105 44 119 
Route 11 : 57 47 122 132 
Route 12 : 8 72 83 147 
Route 13 : 71 146 
Route 14 : 4 79 
Route 15 : 37 112 
Route 16 : 
Route 17 : 
Route 18 : 
Route 19 : 
Route 20 : 
Route 21 : 

--------------------------------------------------------------------------------(Solver execution current time: 27.850415229797363)
[INFO] Starting OriginalPerturbation
--------------------------------------------------------------------------------(Solver execution current time: 30.027402877807617)
[WARNING] Time Limit Exceeded
--------------------------------------------------------------------------------(Solver execution current time: 30.027551889419556)
[WARNING] Searching current best solution.
--------------------------------------------------------------------------------(Solver execution current time: 30.030778169631958)
[INFO] Algorithm execution time : 30.032032012939453
--------------------------------------------------------------------------------(Solver execution current time: 30.032530546188354)
[SOLUTION]
Final Solution Verification
====================================
Constraints verification: 
Homogenous Capacity Constraint OK
Time Windwos Constraint OK
Pickup and Delivery Constraint OK
Fixed Requests Constraint OK
Limited Fleet Constraint OK
Heterogeneous Fleet Constraint OK
====================================
Obj Func verification: 
SOLUTION COST OK
------------------------------------
ROUTES TOTAL COST OK
------------------------------------
REQUESTS TOTAL COST OK
------------------------------------
OBJECTIVE VALUE: -68
ROUTES VALUE: 26703.0
------------------------------------

Best Solution: 
obj_value: -68; obj_routes: 26703.0
Route 1 : 1 62 137 41 13 6 116 81 14 59 27 22 31 51 102 106 88 97 76 89 19 126 134 94 69 65 144 140 5 80 64 139 
Route 2 : 10 40 48 18 42 115 85 117 68 60 143 135 54 49 93 129 123 124 23 47 25 98 100 43 118 122 
Route 3 : 2 77 33 32 107 73 56 52 127 53 108 148 11 131 86 128 37 50 63 112 36 111 138 7 66 141 125 67 82 57 142 132 
Route 4 : 39 114 70 145 29 24 34 26 101 99 45 109 120 104 38 61 136 113 21 96 
Route 5 : 4 79 58 20 133 46 95 30 121 105 71 146 72 147 
Route 6 : 12 3 9 84 87 78 16 91 8 83 44 119 
Route 7 : 
Route 8 : 
Route 9 : 
Route 10 : 
Route 11 : 
Route 12 : 
Route 13 : 
Route 14 : 
Route 15 : 
Route 16 : 
Route 17 : 
Route 18 : 
Route 19 : 
Route 20 : 
Route 21 : 

--------------------------------------------------------------------------------